NAME : P-n50-k10.440439.tour
COMMENT : Length = 440439
COMMENT : Found by LKH [Keld Helsgaun] Sun Dec 17 22:36:17 2017
TYPE : TOUR
DIMENSION : 59
TOUR_SECTION
1
35
28
14
16
38
21
59
41
40
11
32
58
7
3
29
23
51
34
2
44
43
42
24
54
47
9
36
20
15
52
31
49
48
22
55
18
45
4
17
50
25
57
13
33
10
26
19
56
5
46
30
6
37
53
27
8
12
39
-1
EOF
